5104.47
0 10 1 2 6 8 9 5 3 7 11 17 16 34 0
0 14 18 15 12 19 21 0
0 46 37 47 31 33 40 41 28 30 44 52 22 24 26 23 27 25 0
0 39 36 42 43 35 32 45 29 58 49 53 50 0
0 48 38 55 51 62 54 56 59 60 64 0
0 65 68 67 63 57 61 69 72 73 124 0
0 103 75 70 71 77 79 76 86 84 81 85 83 66 0
0 80 78 110 74 91 94 93 87 82 0
0 89 96 107 90 92 116 140 120 0
0 114 108 100 106 98 95 101 104 97 105 121 137 0
0 109 115 111 99 88 129 119 0
0 118 117 112 113 102 125 130 134 131 123 126 0
0 150 4 148 145 142 138 136 128 127 132 133 122 135 13 143 141 147 0
0 146 149 139 20 144 0
